Cr2 S2 Br2                              
   1.00000000000000     
     3.5533499717999999    0.00010000000000000    0.0000000000000000
     0.0000000000000000    4.7449350357000002    0.0000000000000000
     0.0000000000000000    0.0000000000000000   30.0000000000000000
   Cr   S    Br
     4     4     4
Direct
  0.5000000039680899  0.0000000000000000  0.0976540439667630
  0.0000000000000000  0.5000001016136153  0.1529581292382574
  0.5000000039680899  0.0000000000000000  0.3897582374284099
  0.0000000000000000  0.5000001016136153  0.4450623226999042
  0.5000000039680899  0.5000001016136153  0.0995241358776084
  0.0000000000000000  0.0000000000000000  0.1510805088381133
  0.5000000039680899  0.5000001016136153  0.3916358578285539
  0.0000000000000000  0.0000000000000000  0.4431922307890659
  0.0000000000000000  0.0000000000000000  0.0373803713612091
  0.5000000039680899  0.5000001016136153  0.2132419622830852
  0.0000000000000000  0.0000000000000000  0.3294744043835820
  0.5000000039680899  0.5000001016136153  0.5053359953054581
 
  0.00000000E+00  0.00000000E+00  0.00000000E+00
  0.00000000E+00  0.00000000E+00  0.00000000E+00
  0.00000000E+00  0.00000000E+00  0.00000000E+00
  0.00000000E+00  0.00000000E+00  0.00000000E+00
  0.00000000E+00  0.00000000E+00  0.00000000E+00
  0.00000000E+00  0.00000000E+00  0.00000000E+00
  0.00000000E+00  0.00000000E+00  0.00000000E+00
  0.00000000E+00  0.00000000E+00  0.00000000E+00
  0.00000000E+00  0.00000000E+00  0.00000000E+00
  0.00000000E+00  0.00000000E+00  0.00000000E+00
  0.00000000E+00  0.00000000E+00  0.00000000E+00
  0.00000000E+00  0.00000000E+00  0.00000000E+00
